; benchmark generated from python API
(set-info :status unknown)
(declare-fun strlen_72_64 () (_ BitVec 64))
(declare-fun args_0_8 () (_ BitVec 8))
(declare-fun strlen_75_64 () (_ BitVec 64))
(declare-fun args_1_8 () (_ BitVec 8))
(declare-fun sigaction_oldact_171_1216 () (_ BitVec 1216))
(declare-fun sigaction_oldact_176_1216 () (_ BitVec 1216))
(declare-fun sigaction_oldact_187_1216 () (_ BitVec 1216))
(declare-fun sigaction_oldact_203_1216 () (_ BitVec 1216))
(declare-fun sigaction_oldact_237_1216 () (_ BitVec 1216))
(declare-fun sigaction_oldact_298_1216 () (_ BitVec 1216))
(declare-fun sigaction_oldact_411_1216 () (_ BitVec 1216))
(declare-fun sigaction_oldact_661_1216 () (_ BitVec 1216))
(declare-fun sigaction_oldact_1105_1216 () (_ BitVec 1216))
(assert
 (let (($x351 (= (_ bv1 64) strlen_72_64)))
 (not $x351)))
(assert
 (let ((?x82 (bvadd (_ bv576460752303357824 64) strlen_72_64)))
 (let (($x69 (= (_ bv0 8) args_0_8)))
 (let ((?x46 (ite $x69 (_ bv576460752303357824 64) (_ bv576460752303357825 64))))
 (= ?x46 ?x82)))))
(assert
 (let (($x347 (= (_ bv0 8) args_1_8)))
 (let ((?x355 (ite $x347 (_ bv576460752303357826 64) (_ bv576460752303357827 64))))
 (let ((?x356 (bvsub ?x355 (_ bv576460752303357826 64))))
 (= ?x356 strlen_75_64)))))
(assert
 (let ((?x1831 ((_ extract 127 120) sigaction_oldact_171_1216)))
 (let ((?x2319 (bvand ?x1831 (_ bv4 8))))
 (and (distinct (_ bv0 8) ?x2319) true))))
(assert
 (let ((?x2276 ((_ extract 127 120) sigaction_oldact_176_1216)))
 (let ((?x2398 (bvand ?x2276 (_ bv4 8))))
 (and (distinct (_ bv0 8) ?x2398) true))))
(assert
 (let ((?x2885 ((_ extract 127 120) sigaction_oldact_187_1216)))
 (let ((?x2910 (bvand ?x2885 (_ bv4 8))))
 (= (_ bv0 8) ?x2910))))
(assert
 (let ((?x3841 ((_ extract 127 120) sigaction_oldact_203_1216)))
 (let ((?x3861 (bvand ?x3841 (_ bv4 8))))
 (and (distinct (_ bv0 8) ?x3861) true))))
(assert
 (let ((?x6025 ((_ extract 127 120) sigaction_oldact_237_1216)))
 (let ((?x6031 (bvand ?x6025 (_ bv4 8))))
 (= (_ bv0 8) ?x6031))))
(assert
 (let ((?x10094 ((_ extract 127 120) sigaction_oldact_298_1216)))
 (let ((?x10119 (bvand ?x10094 (_ bv4 8))))
 (= (_ bv0 8) ?x10119))))
(assert
 (let ((?x17747 ((_ extract 127 120) sigaction_oldact_411_1216)))
 (let ((?x17764 (bvand ?x17747 (_ bv4 8))))
 (and (distinct (_ bv0 8) ?x17764) true))))
(assert
 (let ((?x35965 ((_ extract 127 120) sigaction_oldact_661_1216)))
 (let ((?x35985 (bvand ?x35965 (_ bv4 8))))
 (= (_ bv0 8) ?x35985))))
(assert
 (let ((?x63177 ((_ extract 127 120) sigaction_oldact_1105_1216)))
 (let ((?x47984 (bvand ?x63177 (_ bv4 8))))
 (= (_ bv0 8) ?x47984))))
(minimize args_1_8)
(maximize sigaction_oldact_176_1216)
(maximize strlen_72_64)
(maximize sigaction_oldact_187_1216)
(maximize args_1_8)
(maximize sigaction_oldact_237_1216)
(minimize strlen_72_64)
(minimize sigaction_oldact_1105_1216)
(maximize sigaction_oldact_1105_1216)
(minimize args_0_8)
(minimize sigaction_oldact_171_1216)
(check-sat)
(get-objectives)
